Minimize
	value: tt

Subject to
tt + 2000 s_1_1 > 0
tt - t_1_1 - 2002.500000 s_1_1 + 2.500000 s_1_6 > -1998.646600
tt + 2000 s_2_1 > 0
tt - t_2_1 - 2005.000000 s_2_1 + 5.000000 s_2_6 > -1993.386341
tt + 2000 s_1_2 > 0
tt - t_1_2 - 2001.002250 s_1_2 + 1.002250 s_1_7 > -1998.418667
tt + 2000 s_2_2 > 0
tt - t_2_2 - 2002.004500 s_2_2 + 2.004500 s_2_7 > -1992.713140
tt + 2000 s_1_3 > 0
tt - t_1_3 - 2001.002250 s_1_3 + 1.002250 s_1_7 > -1998.355789
tt + 2000 s_2_3 > 0
tt - t_2_3 - 2002.004500 s_2_3 + 2.004500 s_2_7 > -1989.197835
tt + 2000 s_1_4 > 0
tt - t_1_4 - 2004.688900 s_1_4 + 4.688900 s_1_3 > -1999.168489
tt + 2000 s_2_4 > 0
tt - t_2_4 - 2009.377800 s_2_4 + 9.377800 s_2_3 > -1994.309167
tt + 2000 s_1_5 > 0
tt - t_1_5 - 2007.004500 s_1_5 + 7.004500 s_1_7 > -1998.627444
tt + 2000 s_2_5 > 0
tt - t_2_5 - 2014.009000 s_2_5 + 14.009000 s_2_7 > -1992.453081
tt + 2000 s_1_6 > 0
tt - t_1_6 - 2000.000000 s_1_6 > -1997.273689
tt + 2000 s_2_6 > 0
tt - t_2_6 - 2000.000000 s_2_6 > -1994.562789
tt + 2000 s_1_7 > 0
tt - t_1_7 - 2000.000000 s_1_7 > -1997.002200
tt + 2000 s_2_7 > 0
tt - t_2_7 - 2000.000000 s_2_7 > -1993.875800
tt + 2000 s_1_8 > 0
tt - t_1_8 - 2026.844000 s_1_8 + 26.844000 s_1_5 > -1999.790100
tt + 2000 s_2_8 > 0
tt - t_2_8 - 2053.688000 s_2_8 + 53.688000 s_2_5 > -1995.883700
s_1_1 + s_2_1  = 1
s_1_2 + s_2_2  = 1
s_1_3 + s_2_3  = 1
s_1_4 + s_2_4  = 1
s_1_5 + s_2_5  = 1
s_1_6 + s_2_6  = 1
s_1_7 + s_2_7  = 1
s_1_8 + s_2_8  = 1
t_1_1 - t_1_2 + 2000.000000 u_1_1_2 - 1.002250 s_1_2 + 1.002250 s_1_7 > 1.581333
t_1_2 - t_1_1 - 2000.000000 u_1_1_2 > -1998.646600
t_2_1 - t_2_2 + 2000.000000 u_2_1_2 - 2.004500 s_2_2 + 2.004500 s_2_7 > 7.286860
t_2_2 - t_2_1 - 2000.000000 u_2_1_2 > -1993.386341
t_1_1 - t_1_3 + 2000.000000 u_1_1_3 - 1.002250 s_1_3 + 1.002250 s_1_7 > 1.644211
t_1_3 - t_1_1 - 2000.000000 u_1_1_3 > -1998.646600
t_2_1 - t_2_3 + 2000.000000 u_2_1_3 - 2.004500 s_2_3 + 2.004500 s_2_7 > 10.802165
t_2_3 - t_2_1 - 2000.000000 u_2_1_3 > -1993.386341
t_1_1 - t_1_4 + 2000.000000 u_1_1_4 - 2.344450 s_1_4 + 2.344450 s_1_3 > 0.831511
t_1_4 - t_1_1 - 2000.000000 u_1_1_4 > -1998.646600
t_2_1 - t_2_4 + 2000.000000 u_2_1_4 - 4.688900 s_2_4 + 4.688900 s_2_3 > 5.690833
t_2_4 - t_2_1 - 2000.000000 u_2_1_4 > -1993.386341
t_1_1 - t_1_5 + 2000.000000 u_1_1_5 - 3.502250 s_1_5 + 3.502250 s_1_7 > 1.372556
t_1_5 - t_1_1 - 2000.000000 u_1_1_5 > -1998.646600
t_2_1 - t_2_5 + 2000.000000 u_2_1_5 - 7.004500 s_2_5 + 7.004500 s_2_7 > 7.546919
t_2_5 - t_2_1 - 2000.000000 u_2_1_5 > -1993.386341
t_1_1 - t_1_6 - 2000.000000 s_1_6 > -1992.096587
t_1_1 - t_2_6 - 2000.000000 s_2_6 > -1984.208586
t_2_1 - t_1_6 - 2000.000000 s_1_6 > -1992.096587
t_2_1 - t_2_6 - 2000.000000 s_2_6 > -1984.208586
t_1_1 - t_1_7 + 2000.000000 u_1_1_7 > 2.997800
t_1_7 - t_1_1 - 2000.000000 u_1_1_7 > -1998.646600
t_2_1 - t_2_7 + 2000.000000 u_2_1_7 > 6.124200
t_2_7 - t_2_1 - 2000.000000 u_2_1_7 > -1993.386341
t_1_8 - t_1_1 - 2000.000000 s_1_1 > -1996.146600
t_1_8 - t_2_1 - 2000.000000 s_2_1 > -1988.386341
t_2_8 - t_1_1 - 2000.000000 s_1_1 > -1996.146600
t_2_8 - t_2_1 - 2000.000000 s_2_1 > -1988.386341
t_1_2 - t_1_1 + 2000.000000 u_1_2_1 - 2.500000 s_1_1 + 2.500000 s_1_6 > 1.353400
t_1_1 - t_1_2 - 2000.000000 u_1_2_1 > -1998.418667
t_2_2 - t_2_1 + 2000.000000 u_2_2_1 - 5.000000 s_2_1 + 5.000000 s_2_6 > 6.613659
t_2_1 - t_2_2 - 2000.000000 u_2_2_1 > -1992.713140
t_1_2 - t_1_3 + 2000.000000 u_1_2_3 - 1.002250 s_1_3 + 1.002250 s_1_7 > 1.644211
t_1_3 - t_1_2 - 2000.000000 u_1_2_3 > -1998.418667
t_2_2 - t_2_3 + 2000.000000 u_2_2_3 - 2.004500 s_2_3 + 2.004500 s_2_7 > 10.802165
t_2_3 - t_2_2 - 2000.000000 u_2_2_3 > -1992.713140
t_1_2 - t_1_4 + 2000.000000 u_1_2_4 - 2.344450 s_1_4 + 2.344450 s_1_3 > 0.831511
t_1_4 - t_1_2 - 2000.000000 u_1_2_4 > -1998.418667
t_2_2 - t_2_4 + 2000.000000 u_2_2_4 - 4.688900 s_2_4 + 4.688900 s_2_3 > 5.690833
t_2_4 - t_2_2 - 2000.000000 u_2_2_4 > -1992.713140
t_1_2 - t_1_5 + 2000.000000 u_1_2_5 - 3.502250 s_1_5 + 3.502250 s_1_7 > 1.372556
t_1_5 - t_1_2 - 2000.000000 u_1_2_5 > -1998.418667
t_2_2 - t_2_5 + 2000.000000 u_2_2_5 - 7.004500 s_2_5 + 7.004500 s_2_7 > 7.546919
t_2_5 - t_2_2 - 2000.000000 u_2_2_5 > -1992.713140
t_1_2 - t_1_6 + 2000.000000 u_1_2_6 > 2.726311
t_1_6 - t_1_2 - 2000.000000 u_1_2_6 > -1998.418667
t_2_2 - t_2_6 + 2000.000000 u_2_2_6 > 5.437211
t_2_6 - t_2_2 - 2000.000000 u_2_2_6 > -1992.713140
t_1_2 - t_1_7 - 2000.000000 s_1_7 > -1991.825099
t_1_2 - t_2_7 - 2000.000000 s_2_7 > -1983.521597
t_2_2 - t_1_7 - 2000.000000 s_1_7 > -1991.825099
t_2_2 - t_2_7 - 2000.000000 s_2_7 > -1983.521597
t_1_8 - t_1_2 - 2000.000000 s_1_2 > -1997.416417
t_1_8 - t_2_2 - 2000.000000 s_2_2 > -1990.708640
t_2_8 - t_1_2 - 2000.000000 s_1_2 > -1997.416417
t_2_8 - t_2_2 - 2000.000000 s_2_2 > -1990.708640
t_1_3 - t_1_1 + 2000.000000 u_1_3_1 - 2.500000 s_1_1 + 2.500000 s_1_6 > 1.353400
t_1_1 - t_1_3 - 2000.000000 u_1_3_1 > -1998.355789
t_2_3 - t_2_1 + 2000.000000 u_2_3_1 - 5.000000 s_2_1 + 5.000000 s_2_6 > 6.613659
t_2_1 - t_2_3 - 2000.000000 u_2_3_1 > -1989.197835
t_1_3 - t_1_2 + 2000.000000 u_1_3_2 - 1.002250 s_1_2 + 1.002250 s_1_7 > 1.581333
t_1_2 - t_1_3 - 2000.000000 u_1_3_2 > -1998.355789
t_2_3 - t_2_2 + 2000.000000 u_2_3_2 - 2.004500 s_2_2 + 2.004500 s_2_7 > 7.286860
t_2_2 - t_2_3 - 2000.000000 u_2_3_2 > -1989.197835
t_1_4 - t_1_3 - 2000.000000 s_1_3 > -1997.353539
t_1_4 - t_2_3 - 2000.000000 s_2_3 > -1987.193335
t_2_4 - t_1_3 - 2000.000000 s_1_3 > -1997.353539
t_2_4 - t_2_3 - 2000.000000 s_2_3 > -1987.193335
t_1_3 - t_1_5 + 2000.000000 u_1_3_5 - 3.502250 s_1_5 + 3.502250 s_1_7 > 1.372556
t_1_5 - t_1_3 - 2000.000000 u_1_3_5 > -1998.355789
t_2_3 - t_2_5 + 2000.000000 u_2_3_5 - 7.004500 s_2_5 + 7.004500 s_2_7 > 7.546919
t_2_5 - t_2_3 - 2000.000000 u_2_3_5 > -1989.197835
t_1_3 - t_1_6 + 2000.000000 u_1_3_6 > 2.726311
t_1_6 - t_1_3 - 2000.000000 u_1_3_6 > -1998.355789
t_2_3 - t_2_6 + 2000.000000 u_2_3_6 > 5.437211
t_2_6 - t_2_3 - 2000.000000 u_2_3_6 > -1989.197835
t_1_3 - t_1_7 - 2000.000000 s_1_7 > -1991.825099
t_1_3 - t_2_7 - 2000.000000 s_2_7 > -1983.521597
t_2_3 - t_1_7 - 2000.000000 s_1_7 > -1991.825099
t_2_3 - t_2_7 - 2000.000000 s_2_7 > -1983.521597
t_1_8 - t_1_3 - 2000.000000 s_1_3 > -1997.353539
t_1_8 - t_2_3 - 2000.000000 s_2_3 > -1987.193335
t_2_8 - t_1_3 - 2000.000000 s_1_3 > -1997.353539
t_2_8 - t_2_3 - 2000.000000 s_2_3 > -1987.193335
t_1_4 - t_1_1 + 2000.000000 u_1_4_1 - 2.500000 s_1_1 + 2.500000 s_1_6 > 1.353400
t_1_1 - t_1_4 - 2000.000000 u_1_4_1 > -1999.168489
t_2_4 - t_2_1 + 2000.000000 u_2_4_1 - 5.000000 s_2_1 + 5.000000 s_2_6 > 6.613659
t_2_1 - t_2_4 - 2000.000000 u_2_4_1 > -1994.309167
t_1_4 - t_1_2 + 2000.000000 u_1_4_2 - 1.002250 s_1_2 + 1.002250 s_1_7 > 1.581333
t_1_2 - t_1_4 - 2000.000000 u_1_4_2 > -1999.168489
t_2_4 - t_2_2 + 2000.000000 u_2_4_2 - 2.004500 s_2_2 + 2.004500 s_2_7 > 7.286860
t_2_2 - t_2_4 - 2000.000000 u_2_4_2 > -1994.309167
t_1_4 - t_1_3 - 2000.000000 s_1_3 > -1997.353539
t_1_4 - t_2_3 - 2000.000000 s_2_3 > -1987.193335
t_2_4 - t_1_3 - 2000.000000 s_1_3 > -1997.353539
t_2_4 - t_2_3 - 2000.000000 s_2_3 > -1987.193335
t_1_4 - t_1_5 + 2000.000000 u_1_4_5 - 3.502250 s_1_5 + 3.502250 s_1_7 > 1.372556
t_1_5 - t_1_4 - 2000.000000 u_1_4_5 > -1999.168489
t_2_4 - t_2_5 + 2000.000000 u_2_4_5 - 7.004500 s_2_5 + 7.004500 s_2_7 > 7.546919
t_2_5 - t_2_4 - 2000.000000 u_2_4_5 > -1994.309167
t_1_4 - t_1_6 + 2000.000000 u_1_4_6 > 2.726311
t_1_6 - t_1_4 - 2000.000000 u_1_4_6 > -1999.168489
t_2_4 - t_2_6 + 2000.000000 u_2_4_6 > 5.437211
t_2_6 - t_2_4 - 2000.000000 u_2_4_6 > -1994.309167
t_1_4 - t_1_7 - 2000.000000 s_1_7 > -1991.825099
t_1_4 - t_2_7 - 2000.000000 s_2_7 > -1983.521597
t_2_4 - t_1_7 - 2000.000000 s_1_7 > -1991.825099
t_2_4 - t_2_7 - 2000.000000 s_2_7 > -1983.521597
t_1_8 - t_1_4 - 2000.000000 s_1_4 > -1996.824039
t_1_8 - t_2_4 - 2000.000000 s_2_4 > -1989.620267
t_2_8 - t_1_4 - 2000.000000 s_1_4 > -1996.824039
t_2_8 - t_2_4 - 2000.000000 s_2_4 > -1989.620267
t_1_5 - t_1_1 + 2000.000000 u_1_5_1 - 2.500000 s_1_1 + 2.500000 s_1_6 > 1.353400
t_1_1 - t_1_5 - 2000.000000 u_1_5_1 > -1998.627444
t_2_5 - t_2_1 + 2000.000000 u_2_5_1 - 5.000000 s_2_1 + 5.000000 s_2_6 > 6.613659
t_2_1 - t_2_5 - 2000.000000 u_2_5_1 > -1992.453081
t_1_5 - t_1_2 + 2000.000000 u_1_5_2 - 1.002250 s_1_2 + 1.002250 s_1_7 > 1.581333
t_1_2 - t_1_5 - 2000.000000 u_1_5_2 > -1998.627444
t_2_5 - t_2_2 + 2000.000000 u_2_5_2 - 2.004500 s_2_2 + 2.004500 s_2_7 > 7.286860
t_2_2 - t_2_5 - 2000.000000 u_2_5_2 > -1992.453081
t_1_5 - t_1_3 + 2000.000000 u_1_5_3 - 1.002250 s_1_3 + 1.002250 s_1_7 > 1.644211
t_1_3 - t_1_5 - 2000.000000 u_1_5_3 > -1998.627444
t_2_5 - t_2_3 + 2000.000000 u_2_5_3 - 2.004500 s_2_3 + 2.004500 s_2_7 > 10.802165
t_2_3 - t_2_5 - 2000.000000 u_2_5_3 > -1992.453081
t_1_5 - t_1_4 + 2000.000000 u_1_5_4 - 2.344450 s_1_4 + 2.344450 s_1_3 > 0.831511
t_1_4 - t_1_5 - 2000.000000 u_1_5_4 > -1998.627444
t_2_5 - t_2_4 + 2000.000000 u_2_5_4 - 4.688900 s_2_4 + 4.688900 s_2_3 > 5.690833
t_2_4 - t_2_5 - 2000.000000 u_2_5_4 > -1992.453081
t_1_5 - t_1_6 - 2000.000000 s_1_6 > -1992.096587
t_1_5 - t_2_6 - 2000.000000 s_2_6 > -1984.208586
t_2_5 - t_1_6 - 2000.000000 s_1_6 > -1992.096587
t_2_5 - t_2_6 - 2000.000000 s_2_6 > -1984.208586
t_1_5 - t_1_7 - 2000.000000 s_1_7 > -1991.825099
t_1_5 - t_2_7 - 2000.000000 s_2_7 > -1983.521597
t_2_5 - t_1_7 - 2000.000000 s_1_7 > -1991.825099
t_2_5 - t_2_7 - 2000.000000 s_2_7 > -1983.521597
t_1_8 - t_1_5 - 2000.000000 s_1_5 > -1995.125194
t_1_8 - t_2_5 - 2000.000000 s_2_5 > -1985.448581
t_2_8 - t_1_5 - 2000.000000 s_1_5 > -1995.125194
t_2_8 - t_2_5 - 2000.000000 s_2_5 > -1985.448581
t_1_1 - t_1_6 - 2000.000000 s_1_6 > -1992.096587
t_1_1 - t_2_6 - 2000.000000 s_2_6 > -1984.208586
t_2_1 - t_1_6 - 2000.000000 s_1_6 > -1992.096587
t_2_1 - t_2_6 - 2000.000000 s_2_6 > -1984.208586
t_1_6 - t_1_2 + 2000.000000 u_1_6_2 - 1.002250 s_1_2 + 1.002250 s_1_7 > 1.581333
t_1_2 - t_1_6 - 2000.000000 u_1_6_2 > -1997.273689
t_2_6 - t_2_2 + 2000.000000 u_2_6_2 - 2.004500 s_2_2 + 2.004500 s_2_7 > 7.286860
t_2_2 - t_2_6 - 2000.000000 u_2_6_2 > -1994.562789
t_1_6 - t_1_3 + 2000.000000 u_1_6_3 - 1.002250 s_1_3 + 1.002250 s_1_7 > 1.644211
t_1_3 - t_1_6 - 2000.000000 u_1_6_3 > -1997.273689
t_2_6 - t_2_3 + 2000.000000 u_2_6_3 - 2.004500 s_2_3 + 2.004500 s_2_7 > 10.802165
t_2_3 - t_2_6 - 2000.000000 u_2_6_3 > -1994.562789
t_1_6 - t_1_4 + 2000.000000 u_1_6_4 - 2.344450 s_1_4 + 2.344450 s_1_3 > 0.831511
t_1_4 - t_1_6 - 2000.000000 u_1_6_4 > -1997.273689
t_2_6 - t_2_4 + 2000.000000 u_2_6_4 - 4.688900 s_2_4 + 4.688900 s_2_3 > 5.690833
t_2_4 - t_2_6 - 2000.000000 u_2_6_4 > -1994.562789
t_1_5 - t_1_6 - 2000.000000 s_1_6 > -1992.096587
t_1_5 - t_2_6 - 2000.000000 s_2_6 > -1984.208586
t_2_5 - t_1_6 - 2000.000000 s_1_6 > -1992.096587
t_2_5 - t_2_6 - 2000.000000 s_2_6 > -1984.208586
t_1_6 - t_1_7 + 2000.000000 u_1_6_7 > 2.997800
t_1_7 - t_1_6 - 2000.000000 u_1_6_7 > -1997.273689
t_2_6 - t_2_7 + 2000.000000 u_2_6_7 > 6.124200
t_2_7 - t_2_6 - 2000.000000 u_2_6_7 > -1994.562789
t_1_7 - t_1_1 + 2000.000000 u_1_7_1 - 2.500000 s_1_1 + 2.500000 s_1_6 > 1.353400
t_1_1 - t_1_7 - 2000.000000 u_1_7_1 > -1997.002200
t_2_7 - t_2_1 + 2000.000000 u_2_7_1 - 5.000000 s_2_1 + 5.000000 s_2_6 > 6.613659
t_2_1 - t_2_7 - 2000.000000 u_2_7_1 > -1993.875800
t_1_2 - t_1_7 - 2000.000000 s_1_7 > -1991.825099
t_1_2 - t_2_7 - 2000.000000 s_2_7 > -1983.521597
t_2_2 - t_1_7 - 2000.000000 s_1_7 > -1991.825099
t_2_2 - t_2_7 - 2000.000000 s_2_7 > -1983.521597
t_1_3 - t_1_7 - 2000.000000 s_1_7 > -1991.825099
t_1_3 - t_2_7 - 2000.000000 s_2_7 > -1983.521597
t_2_3 - t_1_7 - 2000.000000 s_1_7 > -1991.825099
t_2_3 - t_2_7 - 2000.000000 s_2_7 > -1983.521597
t_1_4 - t_1_7 - 2000.000000 s_1_7 > -1991.825099
t_1_4 - t_2_7 - 2000.000000 s_2_7 > -1983.521597
t_2_4 - t_1_7 - 2000.000000 s_1_7 > -1991.825099
t_2_4 - t_2_7 - 2000.000000 s_2_7 > -1983.521597
t_1_5 - t_1_7 - 2000.000000 s_1_7 > -1991.825099
t_1_5 - t_2_7 - 2000.000000 s_2_7 > -1983.521597
t_2_5 - t_1_7 - 2000.000000 s_1_7 > -1991.825099
t_2_5 - t_2_7 - 2000.000000 s_2_7 > -1983.521597
t_1_7 - t_1_6 + 2000.000000 u_1_7_6 > 2.726311
t_1_6 - t_1_7 - 2000.000000 u_1_7_6 > -1997.002200
t_2_7 - t_2_6 + 2000.000000 u_2_7_6 > 5.437211
t_2_6 - t_2_7 - 2000.000000 u_2_7_6 > -1993.875800
t_1_8 - t_1_1 - 2000.000000 s_1_1 > -1996.146600
t_1_8 - t_2_1 - 2000.000000 s_2_1 > -1988.386341
t_2_8 - t_1_1 - 2000.000000 s_1_1 > -1996.146600
t_2_8 - t_2_1 - 2000.000000 s_2_1 > -1988.386341
t_1_8 - t_1_2 - 2000.000000 s_1_2 > -1997.416417
t_1_8 - t_2_2 - 2000.000000 s_2_2 > -1990.708640
t_2_8 - t_1_2 - 2000.000000 s_1_2 > -1997.416417
t_2_8 - t_2_2 - 2000.000000 s_2_2 > -1990.708640
t_1_8 - t_1_3 - 2000.000000 s_1_3 > -1997.353539
t_1_8 - t_2_3 - 2000.000000 s_2_3 > -1987.193335
t_2_8 - t_1_3 - 2000.000000 s_1_3 > -1997.353539
t_2_8 - t_2_3 - 2000.000000 s_2_3 > -1987.193335
t_1_8 - t_1_4 - 2000.000000 s_1_4 > -1996.824039
t_1_8 - t_2_4 - 2000.000000 s_2_4 > -1989.620267
t_2_8 - t_1_4 - 2000.000000 s_1_4 > -1996.824039
t_2_8 - t_2_4 - 2000.000000 s_2_4 > -1989.620267
t_1_8 - t_1_5 - 2000.000000 s_1_5 > -1995.125194
t_1_8 - t_2_5 - 2000.000000 s_2_5 > -1985.448581
t_2_8 - t_1_5 - 2000.000000 s_1_5 > -1995.125194
t_2_8 - t_2_5 - 2000.000000 s_2_5 > -1985.448581
Binary
s_1_1
s_2_1
s_1_2
s_2_2
s_1_3
s_2_3
s_1_4
s_2_4
s_1_5
s_2_5
s_1_6
s_2_6
s_1_7
s_2_7
s_1_8
s_2_8
u_1_1_2
u_2_1_2
u_1_1_3
u_2_1_3
u_1_1_4
u_2_1_4
u_1_1_5
u_2_1_5
u_1_1_7
u_2_1_7
u_1_2_1
u_2_2_1
u_1_2_3
u_2_2_3
u_1_2_4
u_2_2_4
u_1_2_5
u_2_2_5
u_1_2_6
u_2_2_6
u_1_3_1
u_2_3_1
u_1_3_2
u_2_3_2
u_1_3_5
u_2_3_5
u_1_3_6
u_2_3_6
u_1_4_1
u_2_4_1
u_1_4_2
u_2_4_2
u_1_4_5
u_2_4_5
u_1_4_6
u_2_4_6
u_1_5_1
u_2_5_1
u_1_5_2
u_2_5_2
u_1_5_3
u_2_5_3
u_1_5_4
u_2_5_4
u_1_6_2
u_2_6_2
u_1_6_3
u_2_6_3
u_1_6_4
u_2_6_4
u_1_6_7
u_2_6_7
u_1_7_1
u_2_7_1
u_1_7_6
u_2_7_6

End
